W=8;
H=7;

MAX_TIME=14;
MAX_TRACKS=11;

TARGET=(5,8);

TRAINS=[(1,2,DOWN),(1,6,DOWN),(7,2,TOP)];
DECOYS=[];

INIT_POS=[
(1,2,STRAIGHT_TD),
(1,6,STRAIGHT_TD),
(2,6,STRAIGHT_TD),
(3,2,DSWITCH_L_R_D),
(3,6,STRAIGHT_TD),
(4,1,STRAIGHT_TD),
(4,2,STRAIGHT_TD),
(4,3,STRAIGHT_TD),
(4,6,STRAIGHT_TD),
(5,2,DSWITCH_R_L_T),
(5,7,STRAIGHT_RL),
(5,8,STRAIGHT_RL),
(7,2,STRAIGHT_TD),
];
TUNNEL_PAIRS=[];

GATES=[
(2,6,1,false),
(3,6,2,false),
(4,6,3,false),
];
ACTIVATIONS=[
(4,1,1),
(4,2,2),
(4,3,3),
];

DSWITCHES=[
(3,2,1),
(5,2,3),
];
STATIONS=[];

SEMAPHORE_SUPPLY=0;
